set T := 
PV1
PV1NM
CHP
UTIL1
BOILER
ELECCHL
ABSORPCHL
;
param btg :=
PV1 0
PV1NM 0
CHP 0
UTIL1 1
BOILER 0
ELECCHL 0
ABSORPCHL 0
;
param btc :=
PV1 0
PV1NM 0
CHP 1
UTIL1 0
BOILER 0
ELECCHL 0
ABSORPCHL 0
;
param bth :=
PV1 0
PV1NM 0
CHP 0
UTIL1 0
BOILER 1
ELECCHL 0
ABSORPCHL 0
;
param btco :=
PV1 0
PV1NM 0
CHP 0
UTIL1 0
BOILER 0
ELECCHL 1
ABSORPCHL 1
;
set D :=
1R
1W
1X
1S
2R
T
;
param blm :=
PV1 1R 1
PV1 1W 1
PV1 1X 1
PV1 1S 1
PV1 2R 1
PV1 T 1
PV1NM 1R 1
PV1NM 1W 1
PV1NM 1X 1
PV1NM 1S 1
PV1NM 2R 1
PV1NM T 1
CHP 1R 1
CHP 1W 1
CHP 1X 1
CHP 1S 1
CHP 2R 1
CHP T 1
UTIL1 1R 1
UTIL1 1W 0
UTIL1 1X 0
UTIL1 1S 1
UTIL1 2R 0
UTIL1 T 0
BOILER 1R 0
BOILER 1W 0
BOILER 1X 0
BOILER 1S 0
BOILER 2R 1
BOILER T 1
ELECCHL 1R 1
ELECCHL 1W 0
ELECCHL 1X 0
ELECCHL 1S 0
ELECCHL 2R 0
ELECCHL T 1
ABSORPCHL 1R 1
ABSORPCHL 1W 0
ABSORPCHL 1X 0
ABSORPCHL 1S 0
ABSORPCHL 2R 0
ABSORPCHL T 1
;
param blc :=
PV1 1 0
PV1 2 0
PV1 3 1
PV1NM 1 0
PV1NM 2 0
PV1NM 3 1
CHP 1 0
CHP 2 0
CHP 3 0
UTIL1 1 0
UTIL1 2 0
UTIL1 3 0
BOILER 1 0
BOILER 2 0
BOILER 3 0
ELECCHL 1 0
ELECCHL 2 0
ELECCHL 3 0
ABSORPCHL 1 0
ABSORPCHL 2 0
ABSORPCHL 3 0
;
set C :=
PV1
WIND
GENERATOR
CHP
UTIL
BOILER
ELECCHL
ABSORPCHL
;
set V :=
BelowNM
NMtoIL
AboveIL
;
param f_d :=
PV1 1
PV1NM 1
CHP 1
UTIL1 0
BOILER 0
ELECCHL 0
ABSORPCHL 0
;
param bm :=
PV1 PV1 1
PV1 WIND 0
PV1 GENERATOR 0
PV1 CHP 0
PV1 UTIL 0
PV1 BOILER 0
PV1 ELECCHL 0
PV1 ABSORPCHL 0
PV1NM PV1 1
PV1NM WIND 0
PV1NM GENERATOR 0
PV1NM CHP 0
PV1NM UTIL 0
PV1NM BOILER 0
PV1NM ELECCHL 0
PV1NM ABSORPCHL 0
CHP PV1 0
CHP WIND 0
CHP GENERATOR 0
CHP CHP 1
CHP UTIL 0
CHP BOILER 0
CHP ELECCHL 0
CHP ABSORPCHL 0
UTIL1 PV1 0
UTIL1 WIND 0
UTIL1 GENERATOR 0
UTIL1 CHP 0
UTIL1 UTIL 0
UTIL1 BOILER 0
UTIL1 ELECCHL 0
UTIL1 ABSORPCHL 0
BOILER PV1 0
BOILER WIND 0
BOILER GENERATOR 0
BOILER CHP 0
BOILER UTIL 0
BOILER BOILER 1
BOILER ELECCHL 0
BOILER ABSORPCHL 0
ELECCHL PV1 0
ELECCHL WIND 0
ELECCHL GENERATOR 0
ELECCHL CHP 0
ELECCHL UTIL 0
ELECCHL BOILER 0
ELECCHL ELECCHL 1
ELECCHL ABSORPCHL 0
ABSORPCHL PV1 0
ABSORPCHL WIND 0
ABSORPCHL GENERATOR 0
ABSORPCHL CHP 0
ABSORPCHL UTIL 0
ABSORPCHL BOILER 0
ABSORPCHL ELECCHL 0
ABSORPCHL ABSORPCHL 1
;
